1312225821478388481509,5,1,2,01,2,1,2,01,15,1,2,09,5,1,2,05,9,1,2,04,7,1,2,010,14,1,2,07,3,1,2,012,7,1,2,05,15,1,2,05,5,1,2,08,3,1,2,014,12,1,2,012,7,1,2,05,3,1,2,04,1,1,2,06,9,1,2,09,12,1,2,015,14,1,2,011,5,1,2,04,13,1,2,01,12,1,2,012,14,1,2,02,2,1,2,06,3,1,2,03,10,1,2,02,13,1,2,03,7,1,2,03,2,1,2,012,2,1,2,08,12,1,2,02,1,1,2,012,9,1,2,09,4,1,2,05,3,1,2,02,1,1,2,015,11,1,2,012,3,1,2,01,13,1,2,01,2,1,2,02,4,1,2,06,10,1,2,010,4,1,2,010,1,1,2,015,5,1,2,08,15,1,2,014,11,1,2,04,11,1,2,010,13,1,2,05,6,1,2,0